#######################



#######################
Set parameter TimeLimit to value 300
Set parameter SoftMemLimit to value 125
Set parameter LogFile to value 1003-MIPFocus0-Presolve1-TimeLimit300-k16x240-3.log
Set parameter Presolve to value 1
Set parameter Seed to value 3
Using license file /opt/gurobi/gurobi.lic

Gurobi Optimizer version 10.0.3 build v10.0.3rc0 (linux64)
Copyright (c) 2023, Gurobi Optimization, LLC

Read MPS format model from file /miplib2010/k16x240.mps.bz2
Reading time = 0.00 seconds
k16x240: 256 rows, 480 columns, 960 nonzeros

CPU model: Intel(R) Xeon(R) E-2388G CPU @ 3.20GHz, instruction set [SSE2|AVX|AVX2|AVX512]
Thread count: 8 physical cores, 16 logical processors, using up to 16 threads

Optimize a model with 256 rows, 480 columns and 960 nonzeros
Model fingerprint: 0x4e80885f
Variable types: 240 continuous, 240 integer (240 binary)
Coefficient statistics:
  Matrix range     [1e+00, 1e+03]
  Objective range  [1e+00, 1e+03]
  Bounds range     [1e+00, 1e+03]
  RHS range        [4e+00, 4e+02]
Found heuristic solution: objective 20220.000000
Presolve time: 0.00s
Presolved: 256 rows, 480 columns, 960 nonzeros
Variable types: 240 continuous, 240 integer (240 binary)

Root relaxation: objective 2.769838e+03, 51 iterations, 0.00 seconds (0.00 work units)

    Nodes    |    Current Node    |     Objective Bounds      |     Work
 Expl Unexpl |  Obj  Depth IntInf | Incumbent    BestBd   Gap | It/Node Time

     0     0 2769.83800    0   14 20220.0000 2769.83800  86.3%     -    0s
H    0     0                    11359.000000 2769.83800  75.6%     -    0s
H    0     0                    11195.000000 2769.83800  75.3%     -    0s
H    0     0                    11074.000000 8084.69631  27.0%     -    0s
     0     0 8084.69631    0   26 11074.0000 8084.69631  27.0%     -    0s
H    0     0                    10916.000000 8084.69631  25.9%     -    0s
     0     0 8528.16906    0   24 10916.0000 8528.16906  21.9%     -    0s
H    0     0                    10870.000000 8528.16906  21.5%     -    0s
     0     0 8539.15185    0   34 10870.0000 8539.15185  21.4%     -    0s
     0     0 8548.03675    0   29 10870.0000 8548.03675  21.4%     -    0s
     0     0 8733.50363    0   37 10870.0000 8733.50363  19.7%     -    0s
H    0     0                    10717.000000 8733.50363  18.5%     -    0s
     0     0 8793.93645    0   29 10717.0000 8793.93645  17.9%     -    0s
     0     0 8813.48501    0   28 10717.0000 8813.48501  17.8%     -    0s
     0     0 8817.87868    0   34 10717.0000 8817.87868  17.7%     -    0s
     0     0 8885.58773    0   36 10717.0000 8885.58773  17.1%     -    0s
H    0     0                    10683.000000 8885.58773  16.8%     -    0s
     0     0 8906.70672    0   37 10683.0000 8906.70672  16.6%     -    0s
     0     0 8913.69236    0   34 10683.0000 8913.69236  16.6%     -    0s
     0     0 9045.00985    0   38 10683.0000 9045.00985  15.3%     -    0s
     0     0 9062.48895    0   41 10683.0000 9062.48895  15.2%     -    0s
     0     0 9062.70872    0   44 10683.0000 9062.70872  15.2%     -    0s
     0     0 9090.52182    0   42 10683.0000 9090.52182  14.9%     -    0s
     0     0 9090.52182    0   42 10683.0000 9090.52182  14.9%     -    0s
     0     2 9092.35563    0   42 10683.0000 9092.35563  14.9%     -    0s
H  122   140                    10678.000000 9229.41167  13.6%  28.9    0s
H  533   456                    10674.000000 9255.17976  13.3%  16.7    0s
 33667 13235 10269.5400   24   17 10674.0000 10012.8665  6.19%  25.1    5s
 74573 20884 10578.3664   30   23 10674.0000 10184.3420  4.59%  26.3   10s
 112555 21842 10484.0267   26   19 10674.0000 10303.8336  3.47%  26.8   15s
 149946 16145 10566.1064   31   23 10674.0000 10418.0802  2.40%  26.8   20s

Cutting planes:
  Gomory: 2
  Lift-and-project: 17
  Cover: 80
  Implied bound: 38
  MIR: 162
  Flow cover: 352
  Flow path: 49
  Inf proof: 3
  Zero half: 11
  Network: 48
  Relax-and-lift: 5

Explored 184955 nodes (4772383 simplex iterations) in 23.67 seconds (28.61 work units)
Thread count was 16 (of 16 available processors)

Solution count 10: 10674 10678 10683 ... 20220

Optimal solution found (tolerance 1.00e-04)
Best objective 1.067400000000e+04, best bound 1.067400000000e+04, gap 0.0000%
